p wcnf 461 1324
w -2 0.367879 0
w 2 2.718282 0
w -3 0.367879 0
w 3 2.718282 0
w -4 0.367879 0
w 4 2.718282 0
w -5 0.367879 0
w 5 2.718282 0
w -6 0.367879 0
w 6 2.718282 0
w -7 0.367879 0
w 7 2.718282 0
w -9 0.367879 0
w 9 2.718282 0
w -10 0.367879 0
w 10 2.718282 0
w -11 0.367879 0
w 11 2.718282 0
w -12 0.367879 0
w 12 2.718282 0
w -13 0.367879 0
w 13 2.718282 0
w -14 0.367879 0
w 14 2.718282 0
w -16 0.367879 0
w 16 2.718282 0
w -17 0.367879 0
w 17 2.718282 0
w -18 0.367879 0
w 18 2.718282 0
w -20 0.367879 0
w 20 2.718282 0
w -21 0.367879 0
w 21 2.718282 0
w -22 0.367879 0
w 22 2.718282 0
w -23 0.367879 0
w 23 2.718282 0
w -24 0.367879 0
w 24 2.718282 0
w -25 0.367879 0
w 25 2.718282 0
w -26 0.367879 0
w 26 2.718282 0
w -27 0.367879 0
w 27 2.718282 0
w -28 0.367879 0
w 28 2.718282 0
w -29 0.367879 0
w 29 2.718282 0
w -31 0.367879 0
w 31 2.718282 0
w -32 0.367879 0
w 32 2.718282 0
w -33 0.367879 0
w 33 2.718282 0
w -34 0.367879 0
w 34 2.718282 0
w -35 0.367879 0
w 35 2.718282 0
w -36 0.367879 0
w 36 2.718282 0
w -38 0.367879 0
w 38 2.718282 0
w -39 0.367879 0
w 39 2.718282 0
w -40 0.367879 0
w 40 2.718282 0
w -41 0.367879 0
w 41 2.718282 0
w -43 0.367879 0
w 43 2.718282 0
w -44 0.367879 0
w 44 2.718282 0
w -45 0.367879 0
w 45 2.718282 0
w -46 0.367879 0
w 46 2.718282 0
w -48 0.367879 0
w 48 2.718282 0
w -49 0.367879 0
w 49 2.718282 0
w -50 0.367879 0
w 50 2.718282 0
w -52 0.367879 0
w 52 2.718282 0
w -53 0.367879 0
w 53 2.718282 0
w -54 0.367879 0
w 54 2.718282 0
w -55 0.367879 0
w 55 2.718282 0
w -56 0.367879 0
w 56 2.718282 0
w -57 0.367879 0
w 57 2.718282 0
w -58 0.367879 0
w 58 2.718282 0
w -59 0.367879 0
w 59 2.718282 0
w -61 0.367879 0
w 61 2.718282 0
w -62 0.367879 0
w 62 2.718282 0
w -63 0.367879 0
w 63 2.718282 0
w -65 0.367879 0
w 65 2.718282 0
w -66 0.367879 0
w 66 2.718282 0
w -67 0.367879 0
w 67 2.718282 0
w -68 0.367879 0
w 68 2.718282 0
w -69 0.367879 0
w 69 2.718282 0
w -70 0.367879 0
w 70 2.718282 0
w -72 0.367879 0
w 72 2.718282 0
w -73 0.367879 0
w 73 2.718282 0
w -74 0.367879 0
w 74 2.718282 0
w -75 0.367879 0
w 75 2.718282 0
w -76 0.367879 0
w 76 2.718282 0
w -78 0.367879 0
w 78 2.718282 0
w -79 0.367879 0
w 79 2.718282 0
w -80 0.367879 0
w 80 2.718282 0
w -81 0.367879 0
w 81 2.718282 0
w -82 0.367879 0
w 82 2.718282 0
w -83 0.367879 0
w 83 2.718282 0
w -85 0.367879 0
w 85 2.718282 0
w -86 0.367879 0
w 86 2.718282 0
w -87 0.367879 0
w 87 2.718282 0
w -89 0.367879 0
w 89 2.718282 0
w -90 0.367879 0
w 90 2.718282 0
w -92 0.367879 0
w 92 2.718282 0
w -94 0.367879 0
w 94 2.718282 0
w -95 0.367879 0
w 95 2.718282 0
w -96 0.367879 0
w 96 2.718282 0
w -97 0.367879 0
w 97 2.718282 0
w -98 0.367879 0
w 98 2.718282 0
w -99 0.367879 0
w 99 2.718282 0
w -100 0.367879 0
w 100 2.718282 0
w -102 0.367879 0
w 102 2.718282 0
w -103 0.367879 0
w 103 2.718282 0
w -104 0.367879 0
w 104 2.718282 0
w -105 0.367879 0
w 105 2.718282 0
w -106 0.367879 0
w 106 2.718282 0
w -107 0.367879 0
w 107 2.718282 0
w -109 0.367879 0
w 109 2.718282 0
w -110 0.367879 0
w 110 2.718282 0
w -111 0.367879 0
w 111 2.718282 0
w -113 0.367879 0
w 113 2.718282 0
w -114 0.367879 0
w 114 2.718282 0
w -115 0.367879 0
w 115 2.718282 0
w -116 0.367879 0
w 116 2.718282 0
w -117 0.367879 0
w 117 2.718282 0
w -119 0.367879 0
w 119 2.718282 0
w -120 0.367879 0
w 120 2.718282 0
w -121 0.367879 0
w 121 2.718282 0
w -122 0.367879 0
w 122 2.718282 0
w -124 0.367879 0
w 124 2.718282 0
w -125 0.367879 0
w 125 2.718282 0
w -126 0.367879 0
w 126 2.718282 0
w -128 0.367879 0
w 128 2.718282 0
w -129 0.367879 0
w 129 2.718282 0
w -131 0.367879 0
w 131 2.718282 0
w -132 0.367879 0
w 132 2.718282 0
w -134 0.367879 0
w 134 2.718282 0
w -135 0.367879 0
w 135 2.718282 0
w -136 0.367879 0
w 136 2.718282 0
w -137 0.367879 0
w 137 2.718282 0
w -138 0.367879 0
w 138 2.718282 0
w -140 0.367879 0
w 140 2.718282 0
w -141 0.367879 0
w 141 2.718282 0
w -142 0.367879 0
w 142 2.718282 0
w -143 0.367879 0
w 143 2.718282 0
w -144 0.367879 0
w 144 2.718282 0
w -145 0.367879 0
w 145 2.718282 0
w -147 0.367879 0
w 147 2.718282 0
w -148 0.367879 0
w 148 2.718282 0
w -149 0.367879 0
w 149 2.718282 0
w -150 0.367879 0
w 150 2.718282 0
w -151 0.367879 0
w 151 2.718282 0
w -152 0.367879 0
w 152 2.718282 0
w -153 0.367879 0
w 153 2.718282 0
w -154 0.367879 0
w 154 2.718282 0
w -156 0.367879 0
w 156 2.718282 0
w -158 0.367879 0
w 158 2.718282 0
w -160 0.367879 0
w 160 2.718282 0
w -162 0.367879 0
w 162 2.718282 0
w -163 0.367879 0
w 163 2.718282 0
w -165 0.367879 0
w 165 2.718282 0
w -166 0.367879 0
w 166 2.718282 0
w -167 0.367879 0
w 167 2.718282 0
w -168 0.367879 0
w 168 2.718282 0
w -170 0.367879 0
w 170 2.718282 0
w -171 0.367879 0
w 171 2.718282 0
w -172 0.367879 0
w 172 2.718282 0
w -173 0.367879 0
w 173 2.718282 0
w -174 0.367879 0
w 174 2.718282 0
w -176 0.367879 0
w 176 2.718282 0
w -177 0.367879 0
w 177 2.718282 0
w -178 0.367879 0
w 178 2.718282 0
w -179 0.367879 0
w 179 2.718282 0
w -180 0.367879 0
w 180 2.718282 0
w -181 0.367879 0
w 181 2.718282 0
w -183 0.367879 0
w 183 2.718282 0
w -184 0.367879 0
w 184 2.718282 0
w -185 0.367879 0
w 185 2.718282 0
w -186 0.367879 0
w 186 2.718282 0
w -188 0.367879 0
w 188 2.718282 0
w -189 0.367879 0
w 189 2.718282 0
w -191 0.367879 0
w 191 2.718282 0
w -192 0.367879 0
w 192 2.718282 0
w -194 0.367879 0
w 194 2.718282 0
w -195 0.367879 0
w 195 2.718282 0
w -196 0.367879 0
w 196 2.718282 0
w -197 0.367879 0
w 197 2.718282 0
w -198 0.367879 0
w 198 2.718282 0
w -200 0.367879 0
w 200 2.718282 0
w -201 0.367879 0
w 201 2.718282 0
w -202 0.367879 0
w 202 2.718282 0
w -203 0.367879 0
w 203 2.718282 0
w -204 0.367879 0
w 204 2.718282 0
w -205 0.367879 0
w 205 2.718282 0
w -206 0.367879 0
w 206 2.718282 0
w -208 0.367879 0
w 208 2.718282 0
w -209 0.367879 0
w 209 2.718282 0
w -210 0.367879 0
w 210 2.718282 0
w -211 0.367879 0
w 211 2.718282 0
w -212 0.367879 0
w 212 2.718282 0
w -214 0.367879 0
w 214 2.718282 0
w -215 0.367879 0
w 215 2.718282 0
w -216 0.367879 0
w 216 2.718282 0
w -218 0.367879 0
w 218 2.718282 0
w -219 0.367879 0
w 219 2.718282 0
w -220 0.367879 0
w 220 2.718282 0
w -222 0.367879 0
w 222 2.718282 0
w -223 0.367879 0
w 223 2.718282 0
w -224 0.367879 0
w 224 2.718282 0
w -225 0.367879 0
w 225 2.718282 0
w -226 0.367879 0
w 226 2.718282 0
w -227 0.367879 0
w 227 2.718282 0
w -229 0.367879 0
w 229 2.718282 0
w -230 0.367879 0
w 230 2.718282 0
w -231 0.367879 0
w 231 2.718282 0
w -232 0.367879 0
w 232 2.718282 0
w -233 0.367879 0
w 233 2.718282 0
w -235 0.367879 0
w 235 2.718282 0
w -236 0.367879 0
w 236 2.718282 0
w -237 0.367879 0
w 237 2.718282 0
w -239 0.367879 0
w 239 2.718282 0
w -240 0.367879 0
w 240 2.718282 0
w -241 0.367879 0
w 241 2.718282 0
w -243 0.367879 0
w 243 2.718282 0
w -244 0.367879 0
w 244 2.718282 0
w -246 0.367879 0
w 246 2.718282 0
w -247 0.367879 0
w 247 2.718282 0
w -248 0.367879 0
w 248 2.718282 0
w -250 0.367879 0
w 250 2.718282 0
w -251 0.367879 0
w 251 2.718282 0
w -253 0.367879 0
w 253 2.718282 0
w -254 0.367879 0
w 254 2.718282 0
w -255 0.367879 0
w 255 2.718282 0
w -256 0.367879 0
w 256 2.718282 0
w -257 0.367879 0
w 257 2.718282 0
w -258 0.367879 0
w 258 2.718282 0
w -261 0.367879 0
w 261 2.718282 0
w -263 0.367879 0
w 263 2.718282 0
w -264 0.367879 0
w 264 2.718282 0
w -265 0.367879 0
w 265 2.718282 0
w -266 0.367879 0
w 266 2.718282 0
w -267 0.367879 0
w 267 2.718282 0
w -269 0.367879 0
w 269 2.718282 0
w -270 0.367879 0
w 270 2.718282 0
w -271 0.367879 0
w 271 2.718282 0
w -272 0.367879 0
w 272 2.718282 0
w -273 0.367879 0
w 273 2.718282 0
w -274 0.367879 0
w 274 2.718282 0
w -276 0.367879 0
w 276 2.718282 0
w -277 0.367879 0
w 277 2.718282 0
w -279 0.367879 0
w 279 2.718282 0
w -280 0.367879 0
w 280 2.718282 0
w -282 0.367879 0
w 282 2.718282 0
w -283 0.367879 0
w 283 2.718282 0
w -284 0.367879 0
w 284 2.718282 0
w -285 0.367879 0
w 285 2.718282 0
w -287 0.367879 0
w 287 2.718282 0
w -288 0.367879 0
w 288 2.718282 0
w -289 0.367879 0
w 289 2.718282 0
w -291 0.367879 0
w 291 2.718282 0
w -293 0.367879 0
w 293 2.718282 0
w -294 0.367879 0
w 294 2.718282 0
w -295 0.367879 0
w 295 2.718282 0
w -297 0.367879 0
w 297 2.718282 0
w -298 0.367879 0
w 298 2.718282 0
w -300 0.367879 0
w 300 2.718282 0
w -302 0.367879 0
w 302 2.718282 0
w -303 0.367879 0
w 303 2.718282 0
w -304 0.367879 0
w 304 2.718282 0
w -305 0.367879 0
w 305 2.718282 0
w -307 0.367879 0
w 307 2.718282 0
w -308 0.367879 0
w 308 2.718282 0
w -309 0.367879 0
w 309 2.718282 0
w -311 0.367879 0
w 311 2.718282 0
w -312 0.367879 0
w 312 2.718282 0
w -314 0.367879 0
w 314 2.718282 0
w -315 0.367879 0
w 315 2.718282 0
w -316 0.367879 0
w 316 2.718282 0
w -317 0.367879 0
w 317 2.718282 0
w -318 0.367879 0
w 318 2.718282 0
w -319 0.367879 0
w 319 2.718282 0
w -321 0.367879 0
w 321 2.718282 0
w -322 0.367879 0
w 322 2.718282 0
w -323 0.367879 0
w 323 2.718282 0
w -326 0.367879 0
w 326 2.718282 0
w -327 0.367879 0
w 327 2.718282 0
w -329 0.367879 0
w 329 2.718282 0
w -331 0.367879 0
w 331 2.718282 0
w -333 0.367879 0
w 333 2.718282 0
w -334 0.367879 0
w 334 2.718282 0
w -336 0.367879 0
w 336 2.718282 0
w -337 0.367879 0
w 337 2.718282 0
w -338 0.367879 0
w 338 2.718282 0
w -339 0.367879 0
w 339 2.718282 0
w -340 0.367879 0
w 340 2.718282 0
w -342 0.367879 0
w 342 2.718282 0
w -344 0.367879 0
w 344 2.718282 0
w -345 0.367879 0
w 345 2.718282 0
w -346 0.367879 0
w 346 2.718282 0
w -348 0.367879 0
w 348 2.718282 0
w -349 0.367879 0
w 349 2.718282 0
w -350 0.367879 0
w 350 2.718282 0
w -351 0.367879 0
w 351 2.718282 0
w -353 0.367879 0
w 353 2.718282 0
w -354 0.367879 0
w 354 2.718282 0
w -355 0.367879 0
w 355 2.718282 0
w -357 0.367879 0
w 357 2.718282 0
w -358 0.367879 0
w 358 2.718282 0
w -359 0.367879 0
w 359 2.718282 0
w -361 0.367879 0
w 361 2.718282 0
w -363 0.367879 0
w 363 2.718282 0
w -364 0.367879 0
w 364 2.718282 0
w -366 0.367879 0
w 366 2.718282 0
w -367 0.367879 0
w 367 2.718282 0
w -370 0.367879 0
w 370 2.718282 0
w -373 0.367879 0
w 373 2.718282 0
w -374 0.367879 0
w 374 2.718282 0
w -376 0.367879 0
w 376 2.718282 0
w -377 0.367879 0
w 377 2.718282 0
w -379 0.367879 0
w 379 2.718282 0
w -380 0.367879 0
w 380 2.718282 0
w -381 0.367879 0
w 381 2.718282 0
w -383 0.367879 0
w 383 2.718282 0
w -384 0.367879 0
w 384 2.718282 0
w -385 0.367879 0
w 385 2.718282 0
w -387 0.367879 0
w 387 2.718282 0
w -388 0.367879 0
w 388 2.718282 0
w -392 0.367879 0
w 392 2.718282 0
w -395 0.367879 0
w 395 2.718282 0
w -397 0.367879 0
w 397 2.718282 0
w -398 0.367879 0
w 398 2.718282 0
w -400 0.367879 0
w 400 2.718282 0
w -401 0.367879 0
w 401 2.718282 0
w -402 0.367879 0
w 402 2.718282 0
w -404 0.367879 0
w 404 2.718282 0
w -406 0.367879 0
w 406 2.718282 0
w -408 0.367879 0
w 408 2.718282 0
w -409 0.367879 0
w 409 2.718282 0
w -411 0.367879 0
w 411 2.718282 0
w -412 0.367879 0
w 412 2.718282 0
w -413 0.367879 0
w 413 2.718282 0
w -416 0.367879 0
w 416 2.718282 0
w -420 0.367879 0
w 420 2.718282 0
w -422 0.367879 0
w 422 2.718282 0
w -423 0.367879 0
w 423 2.718282 0
w -424 0.367879 0
w 424 2.718282 0
w -426 0.367879 0
w 426 2.718282 0
w -428 0.367879 0
w 428 2.718282 0
w -430 0.367879 0
w 430 2.718282 0
w -432 0.367879 0
w 432 2.718282 0
w -433 0.367879 0
w 433 2.718282 0
w -435 0.367879 0
w 435 2.718282 0
w -436 0.367879 0
w 436 2.718282 0
w -438 0.367879 0
w 438 2.718282 0
w -443 0.367879 0
w 443 2.718282 0
w -444 0.367879 0
w 444 2.718282 0
w -445 0.367879 0
w 445 2.718282 0
w -450 0.367879 0
w 450 2.718282 0
w -451 0.367879 0
w 451 2.718282 0
2 1 112 0
2 -1 -112 0
-2 1 -112 0
-2 -1 112 0
3 1 118 0
3 -1 -118 0
-3 1 -118 0
-3 -1 118 0
4 1 169 0
4 -1 -169 0
-4 1 -169 0
-4 -1 169 0
5 1 306 0
5 -1 -306 0
-5 1 -306 0
-5 -1 306 0
6 1 375 0
6 -1 -375 0
-6 1 -375 0
-6 -1 375 0
7 1 442 0
7 -1 -442 0
-7 1 -442 0
-7 -1 442 0
9 8 228 0
9 -8 -228 0
-9 8 -228 0
-9 -8 228 0
10 8 238 0
10 -8 -238 0
-10 8 -238 0
-10 -8 238 0
11 8 262 0
11 -8 -262 0
-11 8 -262 0
-11 -8 262 0
12 8 290 0
12 -8 -290 0
-12 8 -290 0
-12 -8 290 0
13 8 440 0
13 -8 -440 0
-13 8 -440 0
-13 -8 440 0
14 8 448 0
14 -8 -448 0
-14 8 -448 0
-14 -8 448 0
16 15 64 0
16 -15 -64 0
-16 15 -64 0
-16 -15 64 0
17 15 157 0
17 -15 -157 0
-17 15 -157 0
-17 -15 157 0
18 15 242 0
18 -15 -242 0
-18 15 -242 0
-18 -15 242 0
20 19 51 0
20 -19 -51 0
-20 19 -51 0
-20 -19 51 0
21 19 234 0
21 -19 -234 0
-21 19 -234 0
-21 -19 234 0
22 19 352 0
22 -19 -352 0
-22 19 -352 0
-22 -19 352 0
23 19 369 0
23 -19 -369 0
-23 19 -369 0
-23 -19 369 0
24 19 372 0
24 -19 -372 0
-24 19 -372 0
-24 -19 372 0
25 19 382 0
25 -19 -382 0
-25 19 -382 0
-25 -19 382 0
26 19 394 0
26 -19 -394 0
-26 19 -394 0
-26 -19 394 0
27 19 421 0
27 -19 -421 0
-27 19 -421 0
-27 -19 421 0
28 19 448 0
28 -19 -448 0
-28 19 -448 0
-28 -19 448 0
29 19 459 0
29 -19 -459 0
-29 19 -459 0
-29 -19 459 0
31 30 118 0
31 -30 -118 0
-31 30 -118 0
-31 -30 118 0
32 30 292 0
32 -30 -292 0
-32 30 -292 0
-32 -30 292 0
33 30 310 0
33 -30 -310 0
-33 30 -310 0
-33 -30 310 0
34 30 386 0
34 -30 -386 0
-34 30 -386 0
-34 -30 386 0
35 30 403 0
35 -30 -403 0
-35 30 -403 0
-35 -30 403 0
36 30 427 0
36 -30 -427 0
-36 30 -427 0
-36 -30 427 0
38 37 249 0
38 -37 -249 0
-38 37 -249 0
-38 -37 249 0
39 37 290 0
39 -37 -290 0
-39 37 -290 0
-39 -37 290 0
40 37 371 0
40 -37 -371 0
-40 37 -371 0
-40 -37 371 0
41 37 405 0
41 -37 -405 0
-41 37 -405 0
-41 -37 405 0
43 42 221 0
43 -42 -221 0
-43 42 -221 0
-43 -42 221 0
44 42 299 0
44 -42 -299 0
-44 42 -299 0
-44 -42 299 0
45 42 415 0
45 -42 -415 0
-45 42 -415 0
-45 -42 415 0
46 42 456 0
46 -42 -456 0
-46 42 -456 0
-46 -42 456 0
48 47 159 0
48 -47 -159 0
-48 47 -159 0
-48 -47 159 0
49 47 382 0
49 -47 -382 0
-49 47 -382 0
-49 -47 382 0
50 47 429 0
50 -47 -429 0
-50 47 -429 0
-50 -47 429 0
52 51 130 0
52 -51 -130 0
-52 51 -130 0
-52 -51 130 0
53 51 146 0
53 -51 -146 0
-53 51 -146 0
-53 -51 146 0
54 51 190 0
54 -51 -190 0
-54 51 -190 0
-54 -51 190 0
55 51 242 0
55 -51 -242 0
-55 51 -242 0
-55 -51 242 0
56 51 275 0
56 -51 -275 0
-56 51 -275 0
-56 -51 275 0
57 51 332 0
57 -51 -332 0
-57 51 -332 0
-57 -51 332 0
58 51 425 0
58 -51 -425 0
-58 51 -425 0
-58 -51 425 0
59 51 434 0
59 -51 -434 0
-59 51 -434 0
-59 -51 434 0
61 60 164 0
61 -60 -164 0
-61 60 -164 0
-61 -60 164 0
62 60 328 0
62 -60 -328 0
-62 60 -328 0
-62 -60 328 0
63 60 360 0
63 -60 -360 0
-63 60 -360 0
-63 -60 360 0
65 64 207 0
65 -64 -207 0
-65 64 -207 0
-65 -64 207 0
66 64 306 0
66 -64 -306 0
-66 64 -306 0
-66 -64 306 0
67 64 356 0
67 -64 -356 0
-67 64 -356 0
-67 -64 356 0
68 64 368 0
68 -64 -368 0
-68 64 -368 0
-68 -64 368 0
69 64 371 0
69 -64 -371 0
-69 64 -371 0
-69 -64 371 0
70 64 442 0
70 -64 -442 0
-70 64 -442 0
-70 -64 442 0
72 71 217 0
72 -71 -217 0
-72 71 -217 0
-72 -71 217 0
73 71 275 0
73 -71 -275 0
-73 71 -275 0
-73 -71 275 0
74 71 292 0
74 -71 -292 0
-74 71 -292 0
-74 -71 292 0
75 71 389 0
75 -71 -389 0
-75 71 -389 0
-75 -71 389 0
76 71 456 0
76 -71 -456 0
-76 71 -456 0
-76 -71 456 0
78 77 130 0
78 -77 -130 0
-78 77 -130 0
-78 -77 130 0
79 77 245 0
79 -77 -245 0
-79 77 -245 0
-79 -77 245 0
80 77 275 0
80 -77 -275 0
-80 77 -275 0
-80 -77 275 0
81 77 299 0
81 -77 -299 0
-81 77 -299 0
-81 -77 299 0
82 77 330 0
82 -77 -330 0
-82 77 -330 0
-82 -77 330 0
83 77 390 0
83 -77 -390 0
-83 77 -390 0
-83 -77 390 0
85 84 155 0
85 -84 -155 0
-85 84 -155 0
-85 -84 155 0
86 84 190 0
86 -84 -190 0
-86 84 -190 0
-86 -84 190 0
87 84 394 0
87 -84 -394 0
-87 84 -394 0
-87 -84 394 0
89 88 169 0
89 -88 -169 0
-89 88 -169 0
-89 -88 169 0
90 88 332 0
90 -88 -332 0
-90 88 -332 0
-90 -88 332 0
92 91 360 0
92 -91 -360 0
-92 91 -360 0
-92 -91 360 0
94 93 101 0
94 -93 -101 0
-94 93 -101 0
-94 -93 101 0
95 93 245 0
95 -93 -245 0
-95 93 -245 0
-95 -93 245 0
96 93 296 0
96 -93 -296 0
-96 93 -296 0
-96 -93 296 0
97 93 310 0
97 -93 -310 0
-97 93 -310 0
-97 -93 310 0
98 93 347 0
98 -93 -347 0
-98 93 -347 0
-98 -93 347 0
99 93 414 0
99 -93 -414 0
-99 93 -414 0
-99 -93 414 0
100 93 456 0
100 -93 -456 0
-100 93 -456 0
-100 -93 456 0
102 101 207 0
102 -101 -207 0
-102 101 -207 0
-102 -101 207 0
103 101 221 0
103 -101 -221 0
-103 101 -221 0
-103 -101 221 0
104 101 245 0
104 -101 -245 0
-104 101 -245 0
-104 -101 245 0
105 101 330 0
105 -101 -330 0
-105 101 -330 0
-105 -101 330 0
106 101 437 0
106 -101 -437 0
-106 101 -437 0
-106 -101 437 0
107 101 456 0
107 -101 -456 0
-107 101 -456 0
-107 -101 456 0
109 108 190 0
109 -108 -190 0
-109 108 -190 0
-109 -108 190 0
110 108 365 0
110 -108 -365 0
-110 108 -365 0
-110 -108 365 0
111 108 440 0
111 -108 -440 0
-111 108 -440 0
-111 -108 440 0
113 112 164 0
113 -112 -164 0
-113 112 -164 0
-113 -112 164 0
114 112 245 0
114 -112 -245 0
-114 112 -245 0
-114 -112 245 0
115 112 313 0
115 -112 -313 0
-115 112 -313 0
-115 -112 313 0
116 112 382 0
116 -112 -382 0
-116 112 -382 0
-116 -112 382 0
117 112 417 0
117 -112 -417 0
-117 112 -417 0
-117 -112 417 0
119 118 371 0
119 -118 -371 0
-119 118 -371 0
-119 -118 371 0
120 118 421 0
120 -118 -421 0
-120 118 -421 0
-120 -118 421 0
121 118 431 0
121 -118 -431 0
-121 118 -431 0
-121 -118 431 0
122 118 457 0
122 -118 -457 0
-122 118 -457 0
-122 -118 457 0
124 123 193 0
124 -123 -193 0
-124 123 -193 0
-124 -123 193 0
125 123 421 0
125 -123 -421 0
-125 123 -421 0
-125 -123 421 0
126 123 439 0
126 -123 -439 0
-126 123 -439 0
-126 -123 439 0
128 127 278 0
128 -127 -278 0
-128 127 -278 0
-128 -127 278 0
129 127 378 0
129 -127 -378 0
-129 127 -378 0
-129 -127 378 0
131 130 238 0
131 -130 -238 0
-131 130 -238 0
-131 -130 238 0
132 130 332 0
132 -130 -332 0
-132 130 -332 0
-132 -130 332 0
134 133 175 0
134 -133 -175 0
-134 133 -175 0
-134 -133 175 0
135 133 207 0
135 -133 -207 0
-135 133 -207 0
-135 -133 207 0
136 133 249 0
136 -133 -249 0
-136 133 -249 0
-136 -133 249 0
137 133 375 0
137 -133 -375 0
-137 133 -375 0
-137 -133 375 0
138 133 407 0
138 -133 -407 0
-138 133 -407 0
-138 -133 407 0
140 139 343 0
140 -139 -343 0
-140 139 -343 0
-140 -139 343 0
141 139 352 0
141 -139 -352 0
-141 139 -352 0
-141 -139 352 0
142 139 396 0
142 -139 -396 0
-142 139 -396 0
-142 -139 396 0
143 139 419 0
143 -139 -419 0
-143 139 -419 0
-143 -139 419 0
144 139 431 0
144 -139 -431 0
-144 139 -431 0
-144 -139 431 0
145 139 449 0
145 -139 -449 0
-145 139 -449 0
-145 -139 449 0
147 146 190 0
147 -146 -190 0
-147 146 -190 0
-147 -146 190 0
148 146 213 0
148 -146 -213 0
-148 146 -213 0
-148 -146 213 0
149 146 275 0
149 -146 -275 0
-149 146 -275 0
-149 -146 275 0
150 146 325 0
150 -146 -325 0
-150 146 -325 0
-150 -146 325 0
151 146 403 0
151 -146 -403 0
-151 146 -403 0
-151 -146 403 0
152 146 419 0
152 -146 -419 0
-152 146 -419 0
-152 -146 419 0
153 146 425 0
153 -146 -425 0
-153 146 -425 0
-153 -146 425 0
154 146 427 0
154 -146 -427 0
-154 146 -427 0
-154 -146 427 0
156 155 405 0
156 -155 -405 0
-156 155 -405 0
-156 -155 405 0
158 157 281 0
158 -157 -281 0
-158 157 -281 0
-158 -157 281 0
160 159 217 0
160 -159 -217 0
-160 159 -217 0
-160 -159 217 0
162 161 418 0
162 -161 -418 0
-162 161 -418 0
-162 -161 418 0
163 161 429 0
163 -161 -429 0
-163 161 -429 0
-163 -161 429 0
165 164 259 0
165 -164 -259 0
-165 164 -259 0
-165 -164 259 0
166 164 330 0
166 -164 -330 0
-166 164 -330 0
-166 -164 330 0
167 164 335 0
167 -164 -335 0
-167 164 -335 0
-167 -164 335 0
168 164 389 0
168 -164 -389 0
-168 164 -389 0
-168 -164 389 0
170 169 187 0
170 -169 -187 0
-170 169 -187 0
-170 -169 187 0
171 169 290 0
171 -169 -290 0
-171 169 -290 0
-171 -169 290 0
172 169 306 0
172 -169 -306 0
-172 169 -306 0
-172 -169 306 0
173 169 328 0
173 -169 -328 0
-173 169 -328 0
-173 -169 328 0
174 169 382 0
174 -169 -382 0
-174 169 -382 0
-174 -169 382 0
176 175 299 0
176 -175 -299 0
-176 175 -299 0
-176 -175 299 0
177 175 306 0
177 -175 -306 0
-177 175 -306 0
-177 -175 306 0
178 175 324 0
178 -175 -324 0
-178 175 -324 0
-178 -175 324 0
179 175 365 0
179 -175 -365 0
-179 175 -365 0
-179 -175 365 0
180 175 447 0
180 -175 -447 0
-180 175 -447 0
-180 -175 447 0
181 175 457 0
181 -175 -457 0
-181 175 -457 0
-181 -175 457 0
183 182 262 0
183 -182 -262 0
-183 182 -262 0
-183 -182 262 0
184 182 306 0
184 -182 -306 0
-184 182 -306 0
-184 -182 306 0
185 182 421 0
185 -182 -421 0
-185 182 -421 0
-185 -182 421 0
186 182 441 0
186 -182 -441 0
-186 182 -441 0
-186 -182 441 0
188 187 310 0
188 -187 -310 0
-188 187 -310 0
-188 -187 310 0
189 187 437 0
189 -187 -437 0
-189 187 -437 0
-189 -187 437 0
191 190 228 0
191 -190 -228 0
-191 190 -228 0
-191 -190 228 0
192 190 442 0
192 -190 -442 0
-192 190 -442 0
-192 -190 442 0
194 193 234 0
194 -193 -234 0
-194 193 -234 0
-194 -193 234 0
195 193 278 0
195 -193 -278 0
-195 193 -278 0
-195 -193 278 0
196 193 341 0
196 -193 -341 0
-196 193 -341 0
-196 -193 341 0
197 193 425 0
197 -193 -425 0
-197 193 -425 0
-197 -193 425 0
198 193 460 0
198 -193 -460 0
-198 193 -460 0
-198 -193 460 0
200 199 262 0
200 -199 -262 0
-200 199 -262 0
-200 -199 262 0
201 199 330 0
201 -199 -330 0
-201 199 -330 0
-201 -199 330 0
202 199 352 0
202 -199 -352 0
-202 199 -352 0
-202 -199 352 0
203 199 394 0
203 -199 -394 0
-203 199 -394 0
-203 -199 394 0
204 199 407 0
204 -199 -407 0
-204 199 -407 0
-204 -199 407 0
205 199 437 0
205 -199 -437 0
-205 199 -437 0
-205 -199 437 0
206 199 460 0
206 -199 -460 0
-206 199 -460 0
-206 -199 460 0
208 207 262 0
208 -207 -262 0
-208 207 -262 0
-208 -207 262 0
209 207 296 0
209 -207 -296 0
-209 207 -296 0
-209 -207 296 0
210 207 325 0
210 -207 -325 0
-210 207 -325 0
-210 -207 325 0
211 207 389 0
211 -207 -389 0
-211 207 -389 0
-211 -207 389 0
212 207 440 0
212 -207 -440 0
-212 207 -440 0
-212 -207 440 0
214 213 259 0
214 -213 -259 0
-214 213 -259 0
-214 -213 259 0
215 213 417 0
215 -213 -417 0
-215 213 -417 0
-215 -213 417 0
216 213 452 0
216 -213 -452 0
-216 213 -452 0
-216 -213 452 0
218 217 417 0
218 -217 -417 0
-218 217 -417 0
-218 -217 417 0
219 217 455 0
219 -217 -455 0
-219 217 -455 0
-219 -217 455 0
220 217 459 0
220 -217 -459 0
-220 217 -459 0
-220 -217 459 0
222 221 242 0
222 -221 -242 0
-222 221 -242 0
-222 -221 242 0
223 221 249 0
223 -221 -249 0
-223 221 -249 0
-223 -221 249 0
224 221 259 0
224 -221 -259 0
-224 221 -259 0
-224 -221 259 0
225 221 275 0
225 -221 -275 0
-225 221 -275 0
-225 -221 275 0
226 221 356 0
226 -221 -356 0
-226 221 -356 0
-226 -221 356 0
227 221 425 0
227 -221 -425 0
-227 221 -425 0
-227 -221 425 0
229 228 234 0
229 -228 -234 0
-229 228 -234 0
-229 -228 234 0
230 228 320 0
230 -228 -320 0
-230 228 -320 0
-230 -228 320 0
231 228 372 0
231 -228 -372 0
-231 228 -372 0
-231 -228 372 0
232 228 391 0
232 -228 -391 0
-232 228 -391 0
-232 -228 391 0
233 228 427 0
233 -228 -427 0
-233 228 -427 0
-233 -228 427 0
235 234 299 0
235 -234 -299 0
-235 234 -299 0
-235 -234 299 0
236 234 369 0
236 -234 -369 0
-236 234 -369 0
-236 -234 369 0
237 234 439 0
237 -234 -439 0
-237 234 -439 0
-237 -234 439 0
239 238 290 0
239 -238 -290 0
-239 238 -290 0
-239 -238 290 0
240 238 347 0
240 -238 -347 0
-240 238 -347 0
-240 -238 347 0
241 238 456 0
241 -238 -456 0
-241 238 -456 0
-241 -238 456 0
243 242 439 0
243 -242 -439 0
-243 242 -439 0
-243 -242 439 0
244 242 453 0
244 -242 -453 0
-244 242 -453 0
-244 -242 453 0
246 245 330 0
246 -245 -330 0
-246 245 -330 0
-246 -245 330 0
247 245 332 0
247 -245 -332 0
-247 245 -332 0
-247 -245 332 0
248 245 419 0
248 -245 -419 0
-248 245 -419 0
-248 -245 419 0
250 249 310 0
250 -249 -310 0
-250 249 -310 0
-250 -249 310 0
251 249 325 0
251 -249 -325 0
-251 249 -325 0
-251 -249 325 0
253 252 278 0
253 -252 -278 0
-253 252 -278 0
-253 -252 278 0
254 252 330 0
254 -252 -330 0
-254 252 -330 0
-254 -252 330 0
255 252 405 0
255 -252 -405 0
-255 252 -405 0
-255 -252 405 0
256 252 419 0
256 -252 -419 0
-256 252 -419 0
-256 -252 419 0
257 252 454 0
257 -252 -454 0
-257 252 -454 0
-257 -252 454 0
258 252 461 0
258 -252 -461 0
-258 252 -461 0
-258 -252 461 0
261 260 419 0
261 -260 -419 0
-261 260 -419 0
-261 -260 419 0
263 262 268 0
263 -262 -268 0
-263 262 -268 0
-263 -262 268 0
264 262 290 0
264 -262 -290 0
-264 262 -290 0
-264 -262 290 0
265 262 299 0
265 -262 -299 0
-265 262 -299 0
-265 -262 299 0
266 262 360 0
266 -262 -360 0
-266 262 -360 0
-266 -262 360 0
267 262 425 0
267 -262 -425 0
-267 262 -425 0
-267 -262 425 0
269 268 332 0
269 -268 -332 0
-269 268 -332 0
-269 -268 332 0
270 268 341 0
270 -268 -341 0
-270 268 -341 0
-270 -268 341 0
271 268 403 0
271 -268 -403 0
-271 268 -403 0
-271 -268 403 0
272 268 437 0
272 -268 -437 0
-272 268 -437 0
-272 -268 437 0
273 268 447 0
273 -268 -447 0
-273 268 -447 0
-273 -268 447 0
274 268 459 0
274 -268 -459 0
-274 268 -459 0
-274 -268 459 0
276 275 425 0
276 -275 -425 0
-276 275 -425 0
-276 -275 425 0
277 275 442 0
277 -275 -442 0
-277 275 -442 0
-277 -275 442 0
279 278 368 0
279 -278 -368 0
-279 278 -368 0
-279 -278 368 0
280 278 407 0
280 -278 -407 0
-280 278 -407 0
-280 -278 407 0
282 281 324 0
282 -281 -324 0
-282 281 -324 0
-282 -281 324 0
283 281 399 0
283 -281 -399 0
-283 281 -399 0
-283 -281 399 0
284 281 437 0
284 -281 -437 0
-284 281 -437 0
-284 -281 437 0
285 281 446 0
285 -281 -446 0
-285 281 -446 0
-285 -281 446 0
287 286 325 0
287 -286 -325 0
-287 286 -325 0
-287 -286 325 0
288 286 453 0
288 -286 -453 0
-288 286 -453 0
-288 -286 453 0
289 286 454 0
289 -286 -454 0
-289 286 -454 0
-289 -286 454 0
291 290 454 0
291 -290 -454 0
-291 290 -454 0
-291 -290 454 0
293 292 391 0
293 -292 -391 0
-293 292 -391 0
-293 -292 391 0
294 292 421 0
294 -292 -421 0
-294 292 -421 0
-294 -292 421 0
295 292 446 0
295 -292 -446 0
-295 292 -446 0
-295 -292 446 0
297 296 313 0
297 -296 -313 0
-297 296 -313 0
-297 -296 313 0
298 296 459 0
298 -296 -459 0
-298 296 -459 0
-298 -296 459 0
300 299 439 0
300 -299 -439 0
-300 299 -439 0
-300 -299 439 0
302 301 310 0
302 -301 -310 0
-302 301 -310 0
-302 -301 310 0
303 301 389 0
303 -301 -389 0
-303 301 -389 0
-303 -301 389 0
304 301 439 0
304 -301 -439 0
-304 301 -439 0
-304 -301 439 0
305 301 461 0
305 -301 -461 0
-305 301 -461 0
-305 -301 461 0
307 306 369 0
307 -306 -369 0
-307 306 -369 0
-307 -306 369 0
308 306 448 0
308 -306 -448 0
-308 306 -448 0
-308 -306 448 0
309 306 454 0
309 -306 -454 0
-309 306 -454 0
-309 -306 454 0
311 310 330 0
311 -310 -330 0
-311 310 -330 0
-311 -310 330 0
312 310 390 0
312 -310 -390 0
-312 310 -390 0
-312 -310 390 0
314 313 372 0
314 -313 -372 0
-314 313 -372 0
-314 -313 372 0
315 313 407 0
315 -313 -407 0
-315 313 -407 0
-315 -313 407 0
316 313 421 0
316 -313 -421 0
-316 313 -421 0
-316 -313 421 0
317 313 442 0
317 -313 -442 0
-317 313 -442 0
-317 -313 442 0
318 313 454 0
318 -313 -454 0
-318 313 -454 0
-318 -313 454 0
319 313 458 0
319 -313 -458 0
-319 313 -458 0
-319 -313 458 0
321 320 341 0
321 -320 -341 0
-321 320 -341 0
-321 -320 341 0
322 320 390 0
322 -320 -390 0
-322 320 -390 0
-322 -320 390 0
323 320 439 0
323 -320 -439 0
-323 320 -439 0
-323 -320 439 0
326 325 360 0
326 -325 -360 0
-326 325 -360 0
-326 -325 360 0
327 325 458 0
327 -325 -458 0
-327 325 -458 0
-327 -325 458 0
329 328 332 0
329 -328 -332 0
-329 328 -332 0
-329 -328 332 0
331 330 362 0
331 -330 -362 0
-331 330 -362 0
-331 -330 362 0
333 332 362 0
333 -332 -362 0
-333 332 -362 0
-333 -332 362 0
334 332 386 0
334 -332 -386 0
-334 332 -386 0
-334 -332 386 0
336 335 369 0
336 -335 -369 0
-336 335 -369 0
-336 -335 369 0
337 335 394 0
337 -335 -394 0
-337 335 -394 0
-337 -335 394 0
338 335 417 0
338 -335 -417 0
-338 335 -417 0
-338 -335 417 0
339 335 437 0
339 -335 -437 0
-339 335 -437 0
-339 -335 437 0
340 335 446 0
340 -335 -446 0
-340 335 -446 0
-340 -335 446 0
342 341 347 0
342 -341 -347 0
-342 341 -347 0
-342 -341 347 0
344 343 393 0
344 -343 -393 0
-344 343 -393 0
-344 -343 393 0
345 343 439 0
345 -343 -439 0
-345 343 -439 0
-345 -343 439 0
346 343 453 0
346 -343 -453 0
-346 343 -453 0
-346 -343 453 0
348 347 396 0
348 -347 -396 0
-348 347 -396 0
-348 -347 396 0
349 347 421 0
349 -347 -421 0
-349 347 -421 0
-349 -347 421 0
350 347 448 0
350 -347 -448 0
-350 347 -448 0
-350 -347 448 0
351 347 456 0
351 -347 -456 0
-351 347 -456 0
-351 -347 456 0
353 352 386 0
353 -352 -386 0
-353 352 -386 0
-353 -352 386 0
354 352 418 0
354 -352 -418 0
-354 352 -418 0
-354 -352 418 0
355 352 449 0
355 -352 -449 0
-355 352 -449 0
-355 -352 449 0
357 356 405 0
357 -356 -405 0
-357 356 -405 0
-357 -356 405 0
358 356 431 0
358 -356 -431 0
-358 356 -431 0
-358 -356 431 0
359 356 437 0
359 -356 -437 0
-359 356 -437 0
-359 -356 437 0
361 360 441 0
361 -360 -441 0
-361 360 -441 0
-361 -360 441 0
363 362 390 0
363 -362 -390 0
-363 362 -390 0
-363 -362 390 0
364 362 414 0
364 -362 -414 0
-364 362 -414 0
-364 -362 414 0
366 365 403 0
366 -365 -403 0
-366 365 -403 0
-366 -365 403 0
367 365 458 0
367 -365 -458 0
-367 365 -458 0
-367 -365 458 0
370 369 434 0
370 -369 -434 0
-370 369 -434 0
-370 -369 434 0
373 372 415 0
373 -372 -415 0
-373 372 -415 0
-373 -372 415 0
374 372 454 0
374 -372 -454 0
-374 372 -454 0
-374 -372 454 0
376 375 429 0
376 -375 -429 0
-376 375 -429 0
-376 -375 429 0
377 375 455 0
377 -375 -455 0
-377 375 -455 0
-377 -375 455 0
379 378 396 0
379 -378 -396 0
-379 378 -396 0
-379 -378 396 0
380 378 421 0
380 -378 -421 0
-380 378 -421 0
-380 -378 421 0
381 378 455 0
381 -378 -455 0
-381 378 -455 0
-381 -378 455 0
383 382 431 0
383 -382 -431 0
-383 382 -431 0
-383 -382 431 0
384 382 441 0
384 -382 -441 0
-384 382 -441 0
-384 -382 441 0
385 382 442 0
385 -382 -442 0
-385 382 -442 0
-385 -382 442 0
387 386 429 0
387 -386 -429 0
-387 386 -429 0
-387 -386 429 0
388 386 461 0
388 -386 -461 0
-388 386 -461 0
-388 -386 461 0
392 391 455 0
392 -391 -455 0
-392 391 -455 0
-392 -391 455 0
395 394 442 0
395 -394 -442 0
-395 394 -442 0
-395 -394 442 0
397 396 427 0
397 -396 -427 0
-397 396 -427 0
-397 -396 427 0
398 396 456 0
398 -396 -456 0
-398 396 -456 0
-398 -396 456 0
400 399 410 0
400 -399 -410 0
-400 399 -410 0
-400 -399 410 0
401 399 418 0
401 -399 -418 0
-401 399 -418 0
-401 -399 418 0
402 399 458 0
402 -399 -458 0
-402 399 -458 0
-402 -399 458 0
404 403 461 0
404 -403 -461 0
-404 403 -461 0
-404 -403 461 0
406 405 415 0
406 -405 -415 0
-406 405 -415 0
-406 -405 415 0
408 407 419 0
408 -407 -419 0
-408 407 -419 0
-408 -407 419 0
409 407 453 0
409 -407 -453 0
-409 407 -453 0
-409 -407 453 0
411 410 429 0
411 -410 -429 0
-411 410 -429 0
-411 -410 429 0
412 410 441 0
412 -410 -441 0
-412 410 -441 0
-412 -410 441 0
413 410 459 0
413 -410 -459 0
-413 410 -459 0
-413 -410 459 0
416 415 458 0
416 -415 -458 0
-416 415 -458 0
-416 -415 458 0
420 419 447 0
420 -419 -447 0
-420 419 -447 0
-420 -419 447 0
422 421 434 0
422 -421 -434 0
-422 421 -434 0
-422 -421 434 0
423 421 439 0
423 -421 -439 0
-423 421 -439 0
-423 -421 439 0
424 421 448 0
424 -421 -448 0
-424 421 -448 0
-424 -421 448 0
426 425 434 0
426 -425 -434 0
-426 425 -434 0
-426 -425 434 0
428 427 456 0
428 -427 -456 0
-428 427 -456 0
-428 -427 456 0
430 429 449 0
430 -429 -449 0
-430 429 -449 0
-430 -429 449 0
432 431 448 0
432 -431 -448 0
-432 431 -448 0
-432 -431 448 0
433 431 460 0
433 -431 -460 0
-433 431 -460 0
-433 -431 460 0
435 434 452 0
435 -434 -452 0
-435 434 -452 0
-435 -434 452 0
436 434 460 0
436 -434 -460 0
-436 434 -460 0
-436 -434 460 0
438 437 442 0
438 -437 -442 0
-438 437 -442 0
-438 -437 442 0
443 442 453 0
443 -442 -453 0
-443 442 -453 0
-443 -442 453 0
444 442 459 0
444 -442 -459 0
-444 442 -459 0
-444 -442 459 0
445 442 461 0
445 -442 -461 0
-445 442 -461 0
-445 -442 461 0
450 449 458 0
450 -449 -458 0
-450 449 -458 0
-450 -449 458 0
451 449 459 0
451 -449 -459 0
-451 449 -459 0
-451 -449 459 0
